Configuration file Under damped cells in clusters
200 atoms
0 bonds
0 angles
2 atom types

-25.0 25.0 xlo xhi
-25.0 25.0 ylo yhi
-0.1 0.1 zlo zhi

Masses

1 1.0
2 1.0


Atoms

1 1 -14.909193218842917 -17.514971594325722 0
2 1 -14.909193218842917 -15.864971594325722 0
3 1 -14.909193218842917 -14.214971594325721 0
4 1 -13.259193218842917 -17.514971594325722 0
5 1 -13.259193218842917 -15.864971594325722 0
6 1 -13.064530533857697 -19.817721618911285 0
7 1 -13.064530533857697 -18.167721618911287 0
8 1 -13.064530533857697 -16.51772161891129 0
9 1 -11.414530533857697 -19.817721618911285 0
10 1 -11.414530533857697 -18.167721618911287 0
11 1 -15.293919143812802 -18.55093201939411 0
12 1 -15.293919143812802 -16.900932019394112 0
13 1 -15.293919143812802 -15.250932019394112 0
14 1 -13.643919143812802 -18.55093201939411 0
15 1 -13.643919143812802 -16.900932019394112 0
16 1 -20.66300454358011 18.11299707145387 0
17 1 -20.66300454358011 19.762997071453867 0
18 1 -20.66300454358011 21.412997071453866 0
19 1 -19.013004543580113 18.11299707145387 0
20 1 -19.013004543580113 19.762997071453867 0
21 1 -4.446702260653643 -4.296215957219124 0
22 1 -4.446702260653643 -2.6462159572191233 0
23 1 -4.446702260653643 -0.9962159572191231 0
24 1 -2.7967022606536425 -4.296215957219124 0
25 1 -2.7967022606536425 -2.6462159572191233 0
26 1 17.091733635754885 -21.60596279359946 0
27 1 17.091733635754885 -19.95596279359946 0
28 1 17.091733635754885 -18.305962793599463 0
29 1 18.741733635754883 -21.60596279359946 0
30 1 18.741733635754883 -19.95596279359946 0
31 1 -3.384433034560347 10.076809108041124 0
32 1 -3.384433034560347 11.726809108041124 0
33 1 -3.384433034560347 13.376809108041124 0
34 1 -1.7344330345603467 10.076809108041124 0
35 1 -1.7344330345603467 11.726809108041124 0
36 1 -12.120323619261018 -18.20861761100606 0
37 1 -12.120323619261018 -16.55861761100606 0
38 1 -12.120323619261018 -14.90861761100606 0
39 1 -10.470323619261018 -18.20861761100606 0
40 1 -10.470323619261018 -16.55861761100606 0
41 1 0.8287949360042133 17.183430318047563 0
42 1 0.8287949360042133 18.83343031804756 0
43 1 0.8287949360042133 20.48343031804756 0
44 1 2.4787949360042134 17.183430318047563 0
45 1 2.4787949360042134 18.83343031804756 0
46 1 12.794930211390584 -1.179238021352395 0
47 1 12.794930211390584 0.47076197864760516 0
48 1 12.794930211390584 2.1207619786476055 0
49 1 14.444930211390584 -1.179238021352395 0
50 1 14.444930211390584 0.47076197864760516 0
51 1 -0.315942461741036 12.79790514096993 0
52 1 -0.315942461741036 14.44790514096993 0
53 1 -0.315942461741036 16.097905140969928 0
54 1 1.3340575382589641 12.79790514096993 0
55 1 1.3340575382589641 14.44790514096993 0
56 1 1.9934958268253296 17.694422918993112 0
57 1 1.9934958268253296 19.34442291899311 0
58 1 1.9934958268253296 20.99442291899311 0
59 1 3.6434958268253297 17.694422918993112 0
60 1 3.6434958268253297 19.34442291899311 0
61 1 -14.41182115949737 8.914195009791372 0
62 1 -14.41182115949737 10.564195009791373 0
63 1 -14.41182115949737 12.214195009791373 0
64 1 -12.76182115949737 8.914195009791372 0
65 1 -12.76182115949737 10.564195009791373 0
66 1 1.8998825369935644 -10.624295665157035 0
67 1 1.8998825369935644 -8.974295665157035 0
68 1 1.8998825369935644 -7.324295665157035 0
69 1 3.5498825369935645 -10.624295665157035 0
70 1 3.5498825369935645 -8.974295665157035 0
71 1 0.2339874990356583 16.594743525253612 0
72 1 0.2339874990356583 18.24474352525361 0
73 1 0.2339874990356583 19.89474352525361 0
74 1 1.8839874990356584 16.594743525253612 0
75 1 1.8839874990356584 18.24474352525361 0
76 1 1.18745978507239 6.75323805643132 0
77 1 1.18745978507239 8.40323805643132 0
78 1 1.18745978507239 10.05323805643132 0
79 1 2.83745978507239 6.75323805643132 0
80 1 2.83745978507239 8.40323805643132 0
81 1 14.836785436662444 11.616240753399785 0
82 1 14.836785436662444 13.266240753399785 0
83 1 14.836785436662444 14.916240753399785 0
84 1 16.486785436662444 11.616240753399785 0
85 1 16.486785436662444 13.266240753399785 0
86 1 -21.93366635880108 17.901851588029928 0
87 1 -21.93366635880108 19.551851588029926 0
88 1 -21.93366635880108 21.201851588029925 0
89 1 -20.28366635880108 17.901851588029928 0
90 1 -20.28366635880108 19.551851588029926 0
91 1 12.672100625774382 6.574699398521199 0
92 1 12.672100625774382 8.2246993985212 0
93 1 12.672100625774382 9.8746993985212 0
94 1 14.322100625774382 6.574699398521199 0
95 1 14.322100625774382 8.2246993985212 0
96 1 -15.14304425409742 13.00279908700512 0
97 1 -15.14304425409742 14.652799087005121 0
98 1 -15.14304425409742 16.30279908700512 0
99 1 -13.49304425409742 13.00279908700512 0
100 1 -13.49304425409742 14.652799087005121 0
101 1 -8.18396091079631 7.009706373788406 0
102 1 -8.18396091079631 8.659706373788406 0
103 1 -8.18396091079631 10.309706373788407 0
104 1 -6.53396091079631 7.009706373788406 0
105 1 -6.53396091079631 8.659706373788406 0
106 1 -21.724036108985363 1.1647984707122936 0
107 1 -21.724036108985363 2.8147984707122937 0
108 1 -21.724036108985363 4.464798470712294 0
109 1 -20.074036108985364 1.1647984707122936 0
110 1 -20.074036108985364 2.8147984707122937 0
111 1 9.964409853583247 7.01224575853402 0
112 1 9.964409853583247 8.66224575853402 0
113 1 9.964409853583247 10.31224575853402 0
114 1 11.614409853583247 7.01224575853402 0
115 1 11.614409853583247 8.66224575853402 0
116 1 -13.990683010775482 -8.216539656654549 0
117 1 -13.990683010775482 -6.566539656654548 0
118 1 -13.990683010775482 -4.916539656654548 0
119 1 -12.340683010775482 -8.216539656654549 0
120 1 -12.340683010775482 -6.566539656654548 0
121 1 11.894637135469031 14.981089629575221 0
122 1 11.894637135469031 16.63108962957522 0
123 1 11.894637135469031 18.28108962957522 0
124 1 13.544637135469031 14.981089629575221 0
125 1 13.544637135469031 16.63108962957522 0
126 1 14.403296115047224 -2.5962145524458276 0
127 1 14.403296115047224 -0.9462145524458272 0
128 1 14.403296115047224 0.7037854475541729 0
129 1 16.053296115047225 -2.5962145524458276 0
130 1 16.053296115047225 -0.9462145524458272 0
131 1 7.667457075676785 -0.3455464169639215 0
132 1 7.667457075676785 1.3044535830360786 0
133 1 7.667457075676785 2.954453583036079 0
134 1 9.317457075676785 -0.3455464169639215 0
135 1 9.317457075676785 1.3044535830360786 0
136 1 -17.881878321605264 -12.00845720569192 0
137 1 -17.881878321605264 -10.35845720569192 0
138 1 -17.881878321605264 -8.70845720569192 0
139 1 -16.231878321605265 -12.00845720569192 0
140 1 -16.231878321605265 -10.35845720569192 0
141 1 11.950885409316752 3.345731487198874 0
142 1 11.950885409316752 4.995731487198874 0
143 1 11.950885409316752 6.645731487198875 0
144 1 13.600885409316753 3.345731487198874 0
145 1 13.600885409316753 4.995731487198874 0
146 1 10.68877960765178 -4.201150066712328 0
147 1 10.68877960765178 -2.551150066712328 0
148 1 10.68877960765178 -0.9011500667123278 0
149 1 12.33877960765178 -4.201150066712328 0
150 1 12.33877960765178 -2.551150066712328 0
151 1 0.2905517305100871 7.590513150919252 0
152 1 0.2905517305100871 9.240513150919252 0
153 1 0.2905517305100871 10.890513150919253 0
154 1 1.9405517305100872 7.590513150919252 0
155 1 1.9405517305100872 9.240513150919252 0
156 1 -5.076451160817944 8.00964369397081 0
157 1 -5.076451160817944 9.65964369397081 0
158 1 -5.076451160817944 11.309643693970811 0
159 1 -3.426451160817944 8.00964369397081 0
160 1 -3.426451160817944 9.65964369397081 0
161 1 -21.516929225880208 8.57328230433401 0
162 1 -21.516929225880208 10.22328230433401 0
163 1 -21.516929225880208 11.87328230433401 0
164 1 -19.86692922588021 8.57328230433401 0
165 1 -19.86692922588021 10.22328230433401 0
166 1 16.163302622495422 -14.341246388532582 0
167 1 16.163302622495422 -12.691246388532582 0
168 1 16.163302622495422 -11.041246388532581 0
169 1 17.81330262249542 -14.341246388532582 0
170 1 17.81330262249542 -12.691246388532582 0
171 1 -0.11298627703625086 2.205014537071383 0
172 1 -0.11298627703625086 3.8550145370713835 0
173 1 -0.11298627703625086 5.505014537071384 0
174 1 1.5370137229637493 2.205014537071383 0
175 1 1.5370137229637493 3.8550145370713835 0
176 1 2.1636347723708997 -3.4935313256219036 0
177 1 2.1636347723708997 -1.8435313256219032 0
178 1 2.1636347723708997 -0.19353132562190312 0
179 1 3.8136347723709 -3.4935313256219036 0
180 1 3.8136347723709 -1.8435313256219032 0
181 1 -19.196515973228685 17.184417403963764 0
182 1 -19.196515973228685 18.834417403963762 0
183 1 -19.196515973228685 20.48441740396376 0
184 1 -17.546515973228686 17.184417403963764 0
185 1 -17.546515973228686 18.834417403963762 0
186 1 -6.133932385447517 -14.159136873656138 0
187 1 -6.133932385447517 -12.509136873656137 0
188 1 -6.133932385447517 -10.859136873656137 0
189 1 -4.483932385447517 -14.159136873656138 0
190 1 -4.483932385447517 -12.509136873656137 0
191 1 15.747032989058757 2.7083874217814934 0
192 1 15.747032989058757 4.358387421781494 0
193 1 15.747032989058757 6.008387421781494 0
194 1 17.397032989058758 2.7083874217814934 0
195 1 17.397032989058758 4.358387421781494 0
196 1 11.859651945379062 -14.58276372337898 0
197 1 11.859651945379062 -12.93276372337898 0
198 1 11.859651945379062 -11.282763723378979 0
199 1 13.509651945379062 -14.58276372337898 0
200 1 13.509651945379062 -12.93276372337898 0
